(set-logic ALL)
(declare-const k Int)(declare-const x (_ BitVec k))
(declare-const s (_ BitVec k))
(declare-const t (_ BitVec k))
(define-fun lemma_MUL_REF14 ((x (_ BitVec k)) (s (_ BitVec k)) (t (_ BitVec k))) Bool (distinct t (bvor (_ bv1 k) (bvnot (bvxor x s)))))
(assert (= t (bvadd x s)))
(assert (not (lemma_MUL_REF14 x s t)))
(assert (> k 1))
(check-sat)
